NAME: test1804
TYPE: TSP
DIMENSION: 12
EDGE_WEIGHT_TYPE: EUC_2D
NODE_COORD_SECTION
1 87.69385295155517 72.1451005229856
2 81.86199535533835 67.10358990789214
3 3.365705911432171 71.67933021008476
4 34.6989743250564 51.21647840061983
5 43.900984092057236 18.031365423644075
6 83.11482205710044 93.19885685995683
7 27.557233617749542 74.68080325388374
8 15.341042576048046 85.61801144244136
9 56.81943195673102 75.81505075479697
10 43.206519811019284 49.029193642674244
11 43.45691585551491 55.58394349067375
12 3.300262008663757 55.99316807943473
EOF
